     Program PWSCF v.6.6 starts on 28Jan2021 at 21:50:28

     R & G space division:  proc/nbgrp/npool/nimage =       2
     Fft bands division:     nmany     =       1
     Waiting for input...
     Reading input from standard input

     Current dimensions of program PWSCF are:
     Max number of different atomic species (ntypx) = 10
     Max number of k-points (npk) =  40000
     Max angular momentum in pseudopotentials (lmaxx) =  3
     file Nb.pbe-spn-rrkjus_psl.1.0.0.UPF: wavefunction(s)  4S 4P renormalized

     Subspace diagonalization in iterative solution of the eigenvalue problem:
     a serial algorithm will be used

     bravais-lattice index     =            4
     lattice parameter (alat)  =       6.2739  a.u.
     unit-cell volume          =    1288.3486 (a.u.)^3
     number of atoms/cell      =            3
     number of atomic types    =            2
     number of electrons       =        25.00
     number of Kohn-Sham states=           30
     kinetic-energy cutoff     =      35.0000  Ry
     charge density cutoff     =     720.0000  Ry
     convergence threshold     =      1.0E-08
     mixing beta               =       0.7000
     number of iterations used =            8  plain     mixing
     Exchange-correlation= PBE
                           (   1   4   3   4   0   0   0)

     celldm(1)=   6.273891  celldm(2)=   6.024096  celldm(3)=   6.024096
     celldm(4)=   0.000000  celldm(5)=   0.000000  celldm(6)=   0.000000

     crystal axes: (cart. coord. in units of alat)
               a(1) = (   1.000000   0.000000   0.000000 )
               a(2) = (  -0.500000   0.866025   0.000000 )
               a(3) = (   0.000000   0.000000   6.024096 )

     reciprocal axes: (cart. coord. in units 2 pi/alat)
               b(1) = (  1.000000  0.577350 -0.000000 )
               b(2) = (  0.000000  1.154701  0.000000 )
               b(3) = (  0.000000 -0.000000  0.166000 )

     PseudoPot. # 1 for Nb read from file:
     ../Nb.pbe-spn-rrkjus_psl.1.0.0.UPF
     MD5 check sum: 6ee677a9f002bd3e3657f443f129faad
     Pseudo is Ultrasoft + core correction, Zval = 13.0
     Generated using "atomic" code by A. Dal Corso v.6.2.2
     Using radial grid of 1227 points,  6 beta functions with:
                l(1) =   0
                l(2) =   0
                l(3) =   1
                l(4) =   1
                l(5) =   2
                l(6) =   2
     Q(r) pseudized with 0 coefficients

     PseudoPot. # 2 for S  read from file:
     ../S.pbe-nl-rrkjus_psl.1.0.0.UPF
     MD5 check sum: 816524f9d2370a67bf2b5249ef8e004b
     Pseudo is Ultrasoft + core correction, Zval =  6.0
     Generated using "atomic" code by A. Dal Corso v.6.3
     Using radial grid of 1151 points,  4 beta functions with:
                l(1) =   0
                l(2) =   0
                l(3) =   1
                l(4) =   1
     Q(r) pseudized with 0 coefficients

     atomic species   valence    mass     pseudopotential
        Nb            13.00    92.90600     Nb( 1.00)
        S              6.00    32.06500     S ( 1.00)

     Starting magnetic structure
     atomic species   magnetization
        Nb           0.100
        S            0.000

     12 Sym. Ops. (no inversion) found

                                    s                        frac. trans.

      isym =  1     identity

 cryst.   s( 1) = (     1          0          0      )
                  (     0          1          0      )
                  (     0          0          1      )

 cart.    s( 1) = (  1.0000000  0.0000000  0.0000000 )
                  (  0.0000000  1.0000000  0.0000000 )
                  (  0.0000000  0.0000000  1.0000000 )

      isym =  2     180 deg rotation - cart. axis [0,1,0]

[...]

      isym =  3     120 deg rotation - cryst. axis [0,0,1]

[...]

      isym =  6     180 deg rotation - cryst. axis [2,1,0]

[...]

      isym =  7     inv. 180 deg rotation - cart. axis [0,0,1]

[...]

      isym =  8     inv. 180 deg rotation - cart. axis [1,0,0]

[...]

      isym =  9     inv.  60 deg rotation - cryst. axis [0,0,1]

 cryst.   s( 9) = (    -1         -1          0      )
                  (     1          0          0      )
                  (     0          0         -1      )

 cart.    s( 9) = ( -0.5000000  0.8660254  0.0000000 )
                  ( -0.8660254 -0.5000000  0.0000000 )
                  (  0.0000000  0.0000000 -1.0000000 )

[...]

 cryst.   s(10) = (     0          1          0      )
                  (    -1         -1          0      )
                  (     0          0         -1      )

 cart.    s(10) = ( -0.5000000 -0.8660254  0.0000000 )
                  (  0.8660254 -0.5000000  0.0000000 )
                  (  0.0000000  0.0000000 -1.0000000 )

[...]

      isym = 12     inv. 180 deg rotation - cryst. axis [1,1,0]

 cryst.   s(12) = (     0         -1          0      )
                  (    -1          0          0      )
                  (     0          0          1      )

 cart.    s(12) = (  0.5000000 -0.8660254  0.0000000 )
                  ( -0.8660254 -0.5000000  0.0000000 )
                  (  0.0000000  0.0000000  1.0000000 )

     point group D_3h (-62m)
     there are  6 classes
     the character table:

       E     2C3   3C2   s_h   2S3   3s_v
A'_1   1.00  1.00  1.00  1.00  1.00  1.00
A'_2   1.00  1.00 -1.00  1.00  1.00 -1.00
E'     2.00 -1.00  0.00  2.00 -1.00  0.00
A''1   1.00  1.00  1.00 -1.00 -1.00 -1.00
A''2   1.00  1.00 -1.00 -1.00 -1.00  1.00
E''    2.00 -1.00  0.00 -2.00  1.00  0.00

     the symmetry operations in each class and the name of the first element:

     E        1
          identity
     2C3      3    4
          120 deg rotation - cryst. axis [0,0,1]
     3C2      2    6    5
          180 deg rotation - cart. axis [0,1,0]
     s_h      7
          inv. 180 deg rotation - cart. axis [0,0,1]
     2S3      9   10
          inv.  60 deg rotation - cryst. axis [0,0,1]
     3s_v     8   11   12
          inv. 180 deg rotation - cart. axis [1,0,0]

   Cartesian axes

     site n.     atom                  positions (alat units)
         1           S   tau(   1) = (   0.0000000   0.5773503   3.8149545  )
         2           Nb  tau(   2) = (   0.5000000   0.2886751   3.0120482  )
         3           S   tau(   3) = (   0.0000000   0.5773503   2.2091419  )

   Crystallographic axes

     site n.     atom                  positions (cryst. coord.)
         1           S   tau(   1) = (  0.3333333  0.6666667  0.6332824  )
         2           Nb  tau(   2) = (  0.6666667  0.3333333  0.5000000  )
         3           S   tau(   3) = (  0.3333333  0.6666667  0.3667176  )

     number of k points=     8  Methfessel-Paxton smearing, width (Ry)=  0.0200
                       cart. coord. in units 2pi/alat
        k(    1) = (   0.0000000   0.0000000   0.0000000), wk =   0.0666667
        k(    2) = (   0.0666667   0.0384900   0.0000000), wk =   0.1333333
        k(    3) = (   0.1333333   0.0769800   0.0000000), wk =   0.1333333
        k(    4) = (   0.2000000   0.1154701   0.0000000), wk =   0.1333333
        k(    5) = (   0.2666667   0.1539601   0.0000000), wk =   0.1333333
        k(    6) = (   0.3333333   0.1924501   0.0000000), wk =   0.1333333
        k(    7) = (   0.4000000   0.2309401   0.0000000), wk =   0.1333333
        k(    8) = (   0.4666667   0.2694301   0.0000000), wk =   0.1333333

                       cryst. coord.
        k(    1) = (   0.0000000   0.0000000   0.0000000), wk =   0.0666667
        k(    2) = (   0.0666667   0.0000000   0.0000000), wk =   0.1333333
        k(    3) = (   0.1333333   0.0000000   0.0000000), wk =   0.1333333
        k(    4) = (   0.2000000   0.0000000   0.0000000), wk =   0.1333333
        k(    5) = (   0.2666667   0.0000000   0.0000000), wk =   0.1333333
        k(    6) = (   0.3333333   0.0000000   0.0000000), wk =   0.1333333
        k(    7) = (   0.4000000   0.0000000   0.0000000), wk =   0.1333333
        k(    8) = (   0.4666667   0.0000000   0.0000000), wk =   0.1333333

     Initial potential from superposition of free atoms

     starting charge   24.99863, renormalised to   25.00000
     Starting wfcs are   21 randomized atomic wfcs +    9 random wfcs

     Self-consistent Calculation

     iteration #  1     ecut=    35.00 Ry     beta= 0.70
     Davidson diagonalization with overlap
     ethr =  1.00E-02,  avg # of iterations =  7.8

     Threshold (ethr) on eigenvalues was too large:
     Diagonalizing with lowered threshold

     Davidson diagonalization with overlap
     ethr =  3.35E-04,  avg # of iterations =  2.5

     total energy              =    -159.46839203 Ry
     estimated scf accuracy    <       0.08447811 Ry

     total magnetization       =     0.73 Bohr mag/cell
     absolute magnetization    =     0.85 Bohr mag/cell

[...]

     total energy              =    -159.48675551 Ry
     estimated scf accuracy    <       0.00000007 Ry

[...]

     iteration # 15     ecut=    35.00 Ry     beta= 0.70
     Davidson diagonalization with overlap
     ethr =  2.70E-10,  avg # of iterations =  2.0

     Magnetic moment per site:
     atom:    1    charge:    5.3909    magn:   -0.0335    constr:    0.0000
     atom:    2    charge:   11.1287    magn:    0.6894    constr:    0.0000
     atom:    3    charge:    5.3909    magn:   -0.0335    constr:    0.0000

     End of self-consistent calculation

 ------ SPIN UP ------------

          k = 0.0000 0.0000 0.0000 (  4457 PWs)   bands (ev):

   -56.9642 -33.1198 -32.7186 -32.7186 -13.5636 -13.4975  -5.4212  -3.7869
    -2.9562  -1.2146  -1.2146  -0.4039  -0.4039  -0.0610  -0.0610   0.5520
     0.5520   1.0527   3.8304   4.4627   5.3833   5.6304   7.2808   7.7548
     7.8090   8.6164  10.2674  10.2674  10.6057  10.6057

     occupation numbers
     1.0000   1.0000   1.0000   1.0000   1.0000   1.0000   1.0000   1.0000
     1.0000   1.0151   1.0151  -0.0353  -0.0353  -0.0014  -0.0014  -0.0000
    -0.0000  -0.0000  -0.0000  -0.0000  -0.0000  -0.0000  -0.0000  -0.0000
    -0.0000  -0.0000  -0.0000  -0.0000  -0.0000  -0.0000

[...]

 ------ SPIN DOWN ----------

[...]

          k = 0.4667 0.2694 0.0000 (  4528 PWs)   bands (ev):

   -56.5194 -32.8272 -32.4350 -32.2160 -12.3553 -12.3498  -4.8258  -4.6486
    -3.2038  -3.1899  -1.9980  -1.4954  -1.2295  -0.0870   0.3252   0.6588
     2.1702   2.3055   5.1995   5.2068   6.5456   6.9493   7.9857   8.2050
     8.7864   9.3226   9.3265   9.5161  10.1745  10.2794

     occupation numbers
     1.0000   1.0000   1.0000   1.0000   1.0000   1.0000   1.0000   1.0000
     1.0000   1.0000   1.0000   1.0003   1.0130  -0.0021  -0.0000  -0.0000
    -0.0000  -0.0000  -0.0000  -0.0000  -0.0000  -0.0000  -0.0000  -0.0000
    -0.0000  -0.0000  -0.0000  -0.0000  -0.0000  -0.0000

     the Fermi energy is    -0.7296 ev

!    total energy              =    -159.48675617 Ry
     estimated scf accuracy    <          5.1E-09 Ry
     smearing contrib. (-TS)   =      -0.00030994 Ry
     internal energy E=F+TS    =    -159.48644623 Ry

     The total energy is F=E-TS. E is the sum of the following terms:
     one-electron contribution =    -692.06026048 Ry
     hartree contribution      =     346.29281113 Ry
     xc contribution           =     -27.95387014 Ry
     ewald contribution        =     214.23487326 Ry

     total magnetization       =     0.74 Bohr mag/cell
     absolute magnetization    =     0.89 Bohr mag/cell

     convergence has been achieved in  15 iterations

     Writing output data file ./tmp/NbS2.save/

     General routines

     Parallel routines

   This run was terminated on:  21:53:19  28Jan2021

   JOB DONE.